(set-logic QF_LRA)
(declare-fun parameter_load_at_depot_r@1 () Real)
(declare-fun parameter_load_at_depot_pallet@1 () Real)
(declare-fun fluent_robot_at_r0_p0@0 () Bool)
(declare-fun fluent_robot_at_r0_p1@0 () Bool)
(declare-fun fluent_robot_free_r0@0 () Bool)
(declare-fun fluent_pallet_at_plt0_p0@0 () Bool)
(declare-fun fluent_pallet_at_plt0_p1@0 () Bool)
(declare-fun act_unload_at_depot@1 () Bool)
(declare-fun fluent_battery_level_r0@0 () Real)
(declare-fun parameter_unload_at_depot_pos@1 () Real)
(declare-fun parameter_unload_at_depot_r@1 () Real)
(declare-fun parameter_unload_at_depot_pallet@1 () Real)
(declare-fun fluent_position_free_p0@0 () Bool)
(declare-fun fluent_position_free_p1@0 () Bool)
(declare-fun fluent_robot_has_r0_plt0@0 () Bool)
(declare-fun fluent_ready_plt0_p0_t0@0 () Bool)
(declare-fun fluent_ready_plt0_p1_t0@0 () Bool)
(declare-fun fluent_treated_plt0_t0@0 () Bool)
(declare-fun dur_make_treatment@1 () Real)
(declare-fun t@1 () Real)
(declare-fun act_move@1 () Bool)
(declare-fun parameter_move_topos@1 () Real)
(declare-fun parameter_move_frompos@1 () Real)
(declare-fun parameter_make_treatment_t@1 () Real)
(declare-fun parameter_make_treatment_pallet@1 () Real)
(declare-fun parameter_move_r@1 () Real)
(declare-fun parameter_make_treatment_r@1 () Real)
(declare-fun parameter_make_treatment_pos@1 () Real)
(declare-fun fluent_robot_at_r0_p0@1 () Bool)
(declare-fun fluent_robot_at_r0_p1@1 () Bool)
(declare-fun fluent_battery_level_r0@1 () Real)
(declare-fun act_load@1 () Bool)
(declare-fun parameter_load_t@1 () Real)
(declare-fun parameter_load_pos@1 () Real)
(declare-fun act_make_treatment@1 () Bool)
(declare-fun parameter_load_pallet@1 () Real)
(declare-fun parameter_load_r@1 () Real)
(declare-fun fluent_robot_free_r0@1 () Bool)
(declare-fun fluent_ready_plt0_p0_t0@1 () Bool)
(declare-fun fluent_ready_plt0_p1_t0@1 () Bool)
(declare-fun fluent_pallet_at_plt0_p0@1 () Bool)
(declare-fun fluent_pallet_at_plt0_p1@1 () Bool)
(declare-fun fluent_robot_has_r0_plt0@1 () Bool)
(declare-fun fluent_treated_plt0_t0@1 () Bool)
(declare-fun fluent_position_free_p0@1 () Bool)
(declare-fun fluent_position_free_p1@1 () Bool)
(declare-fun act_load_at_depot@1 () Bool)
(declare-fun parameter_load_at_depot_pos@1 () Real)
(assert (let ((.def_0 (= parameter_load_at_depot_pos@1 2.0))) (let ((.def_1 (= parameter_load_at_depot_pos@1 1.0))) (let ((.def_2 (or .def_1 .def_0))) (let ((.def_3 (= parameter_load_r@1 0.0))) (let ((.def_4 (= parameter_load_pallet@1 3.0))) (let ((.def_5 (= parameter_load_pos@1 2.0))) (let ((.def_6 (= parameter_load_pos@1 1.0))) (let ((.def_7 (or .def_6 .def_5))) (let ((.def_8 (= parameter_load_t@1 4.0))) (let ((.def_9 (<= fluent_battery_level_r0@1 100.0))) (let ((.def_10 (<= 0.0 fluent_battery_level_r0@1))) (let ((.def_11 (= parameter_make_treatment_pos@1 2.0))) (let ((.def_12 (= parameter_make_treatment_pos@1 1.0))) (let ((.def_13 (or .def_12 .def_11))) (let ((.def_14 (= parameter_make_treatment_r@1 0.0))) (let ((.def_15 (= parameter_move_r@1 0.0))) (let ((.def_16 (= parameter_make_treatment_pallet@1 3.0))) (let ((.def_17 (= parameter_move_frompos@1 2.0))) (let ((.def_18 (= parameter_move_frompos@1 1.0))) (let ((.def_19 (or .def_18 .def_17))) (let ((.def_20 (= parameter_make_treatment_t@1 4.0))) (let ((.def_21 (= parameter_move_topos@1 2.0))) (let ((.def_22 (= parameter_move_topos@1 1.0))) (let ((.def_23 (or .def_22 .def_21))) (let ((.def_24 (= parameter_unload_at_depot_pallet@1 3.0))) (let ((.def_25 (= parameter_unload_at_depot_r@1 0.0))) (let ((.def_26 (= parameter_unload_at_depot_pos@1 2.0))) (let ((.def_27 (= parameter_unload_at_depot_pos@1 1.0))) (let ((.def_28 (or .def_27 .def_26))) (let ((.def_29 (= parameter_load_at_depot_pallet@1 3.0))) (let ((.def_30 (= parameter_load_at_depot_r@1 0.0))) (let ((.def_31 (and act_move@1 true .def_15))) (let ((.def_32 (= fluent_battery_level_r0@0 fluent_battery_level_r0@1))) (let ((.def_33 (not .def_32))) (let ((.def_34 (=> .def_33 .def_31))) (let ((.def_35 (and act_make_treatment@1 true .def_16 .def_11))) (let ((.def_36 (and act_unload_at_depot@1 true .def_24 .def_26))) (let ((.def_37 (and .def_36 .def_35))) (let ((.def_38 (not .def_37))) (let ((.def_39 (and act_load_at_depot@1 true .def_29 .def_0))) (let ((.def_40 (and .def_39 .def_35))) (let ((.def_41 (not .def_40))) (let ((.def_42 (and .def_39 .def_36))) (let ((.def_43 (not .def_42))) (let ((.def_44 (and act_load@1 true .def_4 .def_5))) (let ((.def_45 (and .def_44 .def_35))) (let ((.def_46 (not .def_45))) (let ((.def_47 (and .def_44 .def_36))) (let ((.def_48 (not .def_47))) (let ((.def_49 (and .def_44 .def_39))) (let ((.def_50 (not .def_49))) (let ((.def_51 (or .def_44 .def_39 .def_36 .def_35))) (let ((.def_52 (= fluent_pallet_at_plt0_p1@0 fluent_pallet_at_plt0_p1@1))) (let ((.def_53 (not .def_52))) (let ((.def_54 (=> .def_53 .def_51))) (let ((.def_55 (and act_make_treatment@1 true .def_16 .def_12))) (let ((.def_56 (and act_unload_at_depot@1 true .def_24 .def_27))) (let ((.def_57 (and .def_56 .def_55))) (let ((.def_58 (not .def_57))) (let ((.def_59 (and act_load_at_depot@1 true .def_29 .def_1))) (let ((.def_60 (and .def_59 .def_55))) (let ((.def_61 (not .def_60))) (let ((.def_62 (and .def_59 .def_56))) (let ((.def_63 (not .def_62))) (let ((.def_64 (and act_load@1 true .def_4 .def_6))) (let ((.def_65 (and .def_64 .def_55))) (let ((.def_66 (not .def_65))) (let ((.def_67 (and .def_64 .def_56))) (let ((.def_68 (not .def_67))) (let ((.def_69 (and .def_64 .def_59))) (let ((.def_70 (not .def_69))) (let ((.def_71 (or .def_64 .def_59 .def_56 .def_55))) (let ((.def_72 (= fluent_pallet_at_plt0_p0@0 fluent_pallet_at_plt0_p0@1))) (let ((.def_73 (not .def_72))) (let ((.def_74 (=> .def_73 .def_71))) (let ((.def_75 (and act_load@1 true .def_4 .def_8))) (let ((.def_76 (= fluent_treated_plt0_t0@0 fluent_treated_plt0_t0@1))) (let ((.def_77 (not .def_76))) (let ((.def_78 (=> .def_77 .def_75))) (let ((.def_79 (and act_make_treatment@1 true .def_11))) (let ((.def_80 (and act_load@1 true .def_5))) (let ((.def_81 (and .def_80 .def_79))) (let ((.def_82 (not .def_81))) (let ((.def_83 (or .def_80 .def_79))) (let ((.def_84 (= fluent_position_free_p1@0 fluent_position_free_p1@1))) (let ((.def_85 (not .def_84))) (let ((.def_86 (=> .def_85 .def_83))) (let ((.def_87 (and act_make_treatment@1 true .def_12))) (let ((.def_88 (and act_load@1 true .def_6))) (let ((.def_89 (and .def_88 .def_87))) (let ((.def_90 (not .def_89))) (let ((.def_91 (or .def_88 .def_87))) (let ((.def_92 (= fluent_position_free_p0@0 fluent_position_free_p0@1))) (let ((.def_93 (not .def_92))) (let ((.def_94 (=> .def_93 .def_91))) (let ((.def_95 (+ t@1 2.0))) (let ((.def_96 (= t@1 .def_95))) (let ((.def_97 (and act_make_treatment@1 true .def_96 .def_16 .def_11 .def_20))) (let ((.def_98 (and act_load@1 true .def_4 .def_5 .def_8))) (let ((.def_99 (and .def_98 .def_97))) (let ((.def_100 (not .def_99))) (let ((.def_101 (or .def_98 .def_97))) (let ((.def_102 (= fluent_ready_plt0_p1_t0@0 fluent_ready_plt0_p1_t0@1))) (let ((.def_103 (not .def_102))) (let ((.def_104 (=> .def_103 .def_101))) (let ((.def_105 (and act_make_treatment@1 true .def_96 .def_16 .def_12 .def_20))) (let ((.def_106 (and act_load@1 true .def_4 .def_6 .def_8))) (let ((.def_107 (and .def_106 .def_105))) (let ((.def_108 (not .def_107))) (let ((.def_109 (or .def_106 .def_105))) (let ((.def_110 (= fluent_ready_plt0_p0_t0@0 fluent_ready_plt0_p0_t0@1))) (let ((.def_111 (not .def_110))) (let ((.def_112 (=> .def_111 .def_109))) (let ((.def_113 (and act_make_treatment@1 true .def_14 .def_16))) (let ((.def_114 (and act_unload_at_depot@1 true .def_25 .def_24))) (let ((.def_115 (and .def_114 .def_113))) (let ((.def_116 (not .def_115))) (let ((.def_117 (and act_load_at_depot@1 true .def_30 .def_29))) (let ((.def_118 (and .def_117 .def_113))) (let ((.def_119 (not .def_118))) (let ((.def_120 (and .def_117 .def_114))) (let ((.def_121 (not .def_120))) (let ((.def_122 (and act_load@1 true .def_3 .def_4))) (let ((.def_123 (and .def_122 .def_113))) (let ((.def_124 (not .def_123))) (let ((.def_125 (and .def_122 .def_114))) (let ((.def_126 (not .def_125))) (let ((.def_127 (and .def_122 .def_117))) (let ((.def_128 (not .def_127))) (let ((.def_129 (or .def_122 .def_117 .def_114 .def_113))) (let ((.def_130 (= fluent_robot_has_r0_plt0@0 fluent_robot_has_r0_plt0@1))) (let ((.def_131 (not .def_130))) (let ((.def_132 (=> .def_131 .def_129))) (let ((.def_133 (and act_make_treatment@1 true .def_14))) (let ((.def_134 (and act_unload_at_depot@1 true .def_25))) (let ((.def_135 (and .def_134 .def_133))) (let ((.def_136 (not .def_135))) (let ((.def_137 (and act_load_at_depot@1 true .def_30))) (let ((.def_138 (and .def_137 .def_133))) (let ((.def_139 (not .def_138))) (let ((.def_140 (and .def_137 .def_134))) (let ((.def_141 (not .def_140))) (let ((.def_142 (and act_load@1 true .def_3))) (let ((.def_143 (and .def_142 .def_133))) (let ((.def_144 (not .def_143))) (let ((.def_145 (and .def_142 .def_134))) (let ((.def_146 (not .def_145))) (let ((.def_147 (and .def_142 .def_137))) (let ((.def_148 (not .def_147))) (let ((.def_149 (or .def_142 .def_137 .def_134 .def_133))) (let ((.def_150 (= fluent_robot_free_r0@0 fluent_robot_free_r0@1))) (let ((.def_151 (not .def_150))) (let ((.def_152 (=> .def_151 .def_149))) (let ((.def_153 (and act_move@1 true .def_15 .def_17))) (let ((.def_154 (and act_move@1 true .def_15 .def_21))) (let ((.def_155 (and .def_154 .def_153))) (let ((.def_156 (not .def_155))) (let ((.def_157 (or .def_154 .def_153))) (let ((.def_158 (= fluent_robot_at_r0_p1@0 fluent_robot_at_r0_p1@1))) (let ((.def_159 (not .def_158))) (let ((.def_160 (=> .def_159 .def_157))) (let ((.def_161 (and act_move@1 true .def_15 .def_18))) (let ((.def_162 (and act_move@1 true .def_15 .def_22))) (let ((.def_163 (and .def_162 .def_161))) (let ((.def_164 (not .def_163))) (let ((.def_165 (or .def_162 .def_161))) (let ((.def_166 (= fluent_robot_at_r0_p0@0 fluent_robot_at_r0_p0@1))) (let ((.def_167 (not .def_166))) (let ((.def_168 (=> .def_167 .def_165))) (let ((.def_169 (and .def_168 .def_164 .def_160 .def_156 .def_152 .def_148 .def_146 .def_144 .def_141 .def_139 .def_136 .def_132 .def_128 .def_126 .def_124 .def_121 .def_119 .def_116 .def_112 .def_108 .def_104 .def_100 .def_94 .def_90 .def_86 .def_82 .def_78 .def_74 .def_70 .def_68 .def_66 .def_63 .def_61 .def_58 .def_54 .def_50 .def_48 .def_46 .def_43 .def_41 .def_38 .def_34))) (let ((.def_170 (= t@1 t@1))) (let ((.def_171 (and act_load_at_depot@1 act_make_treatment@1 .def_170))) (let ((.def_172 (not .def_171))) (let ((.def_173 (and act_move@1 act_load_at_depot@1 .def_170))) (let ((.def_174 (not .def_173))) (let ((.def_175 (+ t@1 dur_make_treatment@1))) (let ((.def_176 (= .def_175 t@1))) (let ((.def_177 (and act_make_treatment@1 act_load@1 .def_176))) (let ((.def_178 (not .def_177))) (let ((.def_179 (= .def_95 t@1))) (let ((.def_180 (and act_make_treatment@1 act_load@1 .def_179))) (let ((.def_181 (not .def_180))) (let ((.def_182 (and act_unload_at_depot@1 act_load@1 .def_170))) (let ((.def_183 (not .def_182))) (let ((.def_184 (and act_make_treatment@1 act_load@1 .def_170))) (let ((.def_185 (not .def_184))) (let ((.def_186 (and act_move@1 act_make_treatment@1 .def_170))) (let ((.def_187 (not .def_186))) (let ((.def_188 (and act_move@1 act_load@1 .def_170))) (let ((.def_189 (not .def_188))) (let ((.def_190 (and act_unload_at_depot@1 act_make_treatment@1 .def_170))) (let ((.def_191 (not .def_190))) (let ((.def_192 (and act_unload_at_depot@1 act_move@1 .def_170))) (let ((.def_193 (not .def_192))) (let ((.def_194 (and act_unload_at_depot@1 act_load_at_depot@1 .def_170))) (let ((.def_195 (not .def_194))) (let ((.def_196 (and act_load_at_depot@1 act_load@1 .def_170))) (let ((.def_197 (not .def_196))) (let ((.def_198 (and .def_197 .def_195 .def_193 .def_191 .def_189 .def_187 .def_185 .def_183 .def_181 .def_178 .def_174 .def_172))) (let ((.def_199 (<= 0.0 t@1))) (let ((.def_200 (and .def_16 .def_11 .def_20))) (let ((.def_201 (ite .def_200 fluent_ready_plt0_p1_t0@1 fluent_ready_plt0_p0_t0@1))) (let ((.def_202 (= .def_201 true))) (let ((.def_203 (=> true .def_202))) (let ((.def_204 (and .def_96 .def_203))) (let ((.def_205 (= fluent_robot_free_r0@1 true))) (let ((.def_206 (=> true .def_205))) (let ((.def_207 (and .def_16 .def_11))) (let ((.def_208 (ite .def_207 fluent_pallet_at_plt0_p1@1 fluent_pallet_at_plt0_p0@1))) (let ((.def_209 (= .def_208 true))) (let ((.def_210 (=> true .def_209))) (let ((.def_211 (= fluent_robot_has_r0_plt0@1 false))) (let ((.def_212 (=> true .def_211))) (let ((.def_213 (ite .def_11 fluent_position_free_p1@1 fluent_position_free_p0@1))) (let ((.def_214 (= .def_213 false))) (let ((.def_215 (=> true .def_214))) (let ((.def_216 (and .def_170 .def_215 .def_212 .def_210 .def_206))) (let ((.def_217 (ite .def_11 fluent_position_free_p1@0 fluent_position_free_p0@0))) (let ((.def_218 (and fluent_treated_plt0_t0@0 .def_217))) (let ((.def_219 (<= .def_175 t@1))) (let ((.def_220 (< (- 1.0) .def_175))) (let ((.def_221 (and .def_220 .def_219))) (let ((.def_222 (=> .def_221 .def_218))) (let ((.def_223 (not fluent_treated_plt0_t0@0))) (let ((.def_224 (and .def_14 .def_11))) (let ((.def_225 (ite .def_224 fluent_robot_at_r0_p1@0 fluent_robot_at_r0_p0@0))) (let ((.def_226 (and .def_11 .def_20))) (let ((.def_227 (ite .def_226 false true))) (let ((.def_228 (and .def_227 .def_217 .def_225 fluent_robot_has_r0_plt0@0 .def_223))) (let ((.def_229 (<= t@1 t@1))) (let ((.def_230 (< (- 1.0) t@1))) (let ((.def_231 (and .def_230 .def_229))) (let ((.def_232 (=> .def_231 .def_228))) (let ((.def_233 (<= dur_make_treatment@1 4.0))) (let ((.def_234 (<= 4.0 dur_make_treatment@1))) (let ((.def_235 (and .def_234 .def_233))) (let ((.def_236 (and .def_235 .def_219 .def_232 .def_222 .def_216 .def_204))) (let ((.def_237 (=> act_make_treatment@1 .def_236))) (let ((.def_238 (and .def_24 .def_26))) (let ((.def_239 (ite .def_238 fluent_pallet_at_plt0_p1@1 fluent_pallet_at_plt0_p0@1))) (let ((.def_240 (= .def_239 true))) (let ((.def_241 (=> true .def_240))) (let ((.def_242 (and .def_25 .def_26))) (let ((.def_243 (ite .def_242 fluent_robot_at_r0_p1@0 fluent_robot_at_r0_p0@0))) (let ((.def_244 (ite .def_26 true false))) (let ((.def_245 (and .def_244 .def_243 fluent_robot_has_r0_plt0@0 .def_241 .def_206 .def_212))) (let ((.def_246 (=> act_unload_at_depot@1 .def_245))) (let ((.def_247 (and .def_29 .def_0))) (let ((.def_248 (ite .def_247 fluent_pallet_at_plt0_p1@1 fluent_pallet_at_plt0_p0@1))) (let ((.def_249 (= .def_248 false))) (let ((.def_250 (=> true .def_249))) (let ((.def_251 (= fluent_robot_has_r0_plt0@1 true))) (let ((.def_252 (=> true .def_251))) (let ((.def_253 (= fluent_robot_free_r0@1 false))) (let ((.def_254 (=> true .def_253))) (let ((.def_255 (ite .def_247 fluent_pallet_at_plt0_p1@0 fluent_pallet_at_plt0_p0@0))) (let ((.def_256 (and .def_30 .def_0))) (let ((.def_257 (ite .def_256 fluent_robot_at_r0_p1@0 fluent_robot_at_r0_p0@0))) (let ((.def_258 (ite .def_0 true false))) (let ((.def_259 (and .def_258 .def_257 fluent_robot_free_r0@0 .def_255 .def_254 .def_252 .def_250))) (let ((.def_260 (=> act_load_at_depot@1 .def_259))) (let ((.def_261 (ite .def_5 fluent_position_free_p1@1 fluent_position_free_p0@1))) (let ((.def_262 (= .def_261 true))) (let ((.def_263 (=> true .def_262))) (let ((.def_264 (= fluent_treated_plt0_t0@1 true))) (let ((.def_265 (=> true .def_264))) (let ((.def_266 (and .def_4 .def_5))) (let ((.def_267 (ite .def_266 fluent_pallet_at_plt0_p1@1 fluent_pallet_at_plt0_p0@1))) (let ((.def_268 (= .def_267 false))) (let ((.def_269 (=> true .def_268))) (let ((.def_270 (and .def_4 .def_5 .def_8))) (let ((.def_271 (ite .def_270 fluent_ready_plt0_p1_t0@1 fluent_ready_plt0_p0_t0@1))) (let ((.def_272 (= .def_271 false))) (let ((.def_273 (=> true .def_272))) (let ((.def_274 (ite .def_266 fluent_pallet_at_plt0_p1@0 fluent_pallet_at_plt0_p0@0))) (let ((.def_275 (and .def_3 .def_5))) (let ((.def_276 (ite .def_275 fluent_robot_at_r0_p1@0 fluent_robot_at_r0_p0@0))) (let ((.def_277 (ite .def_270 fluent_ready_plt0_p1_t0@0 fluent_ready_plt0_p0_t0@0))) (let ((.def_278 (and .def_277 .def_276 fluent_robot_free_r0@0 .def_274 .def_254 .def_273 .def_269 .def_252 .def_265 .def_263))) (let ((.def_279 (=> act_load@1 .def_278))) (let ((.def_280 (and .def_17 .def_22))) (let ((.def_281 (ite .def_280 1.0 0.0))) (let ((.def_282 (and .def_18 .def_21))) (let ((.def_283 (ite .def_282 1.0 .def_281))) (let ((.def_284 (and .def_17 .def_21))) (let ((.def_285 (ite .def_284 0.0 .def_283))) (let ((.def_286 (- fluent_battery_level_r0@0 .def_285))) (let ((.def_287 (= fluent_battery_level_r0@1 .def_286))) (let ((.def_288 (=> true .def_287))) (let ((.def_289 (and .def_15 .def_17))) (let ((.def_290 (ite .def_289 fluent_robot_at_r0_p1@1 fluent_robot_at_r0_p0@1))) (let ((.def_291 (= .def_290 false))) (let ((.def_292 (=> true .def_291))) (let ((.def_293 (and .def_15 .def_21))) (let ((.def_294 (ite .def_293 fluent_robot_at_r0_p1@1 fluent_robot_at_r0_p0@1))) (let ((.def_295 (= .def_294 true))) (let ((.def_296 (=> true .def_295))) (let ((.def_297 (<= .def_285 fluent_battery_level_r0@0))) (let ((.def_298 (ite .def_289 fluent_robot_at_r0_p1@0 fluent_robot_at_r0_p0@0))) (let ((.def_299 (= parameter_move_frompos@1 parameter_move_topos@1))) (let ((.def_300 (not .def_299))) (let ((.def_301 (and .def_300 .def_298 .def_297 .def_296 .def_292 .def_288))) (let ((.def_302 (=> act_move@1 .def_301))) (let ((.def_303 (<= 0.0 fluent_battery_level_r0@0))) (let ((.def_304 (<= fluent_battery_level_r0@0 100.0))) (let ((.def_305 (= false false))) (let ((.def_306 (= fluent_pallet_at_plt0_p0@0 false))) (let ((.def_307 (= fluent_treated_plt0_t0@0 false))) (let ((.def_308 (= fluent_ready_plt0_p1_t0@0 false))) (let ((.def_309 (= fluent_ready_plt0_p0_t0@0 false))) (let ((.def_310 (= fluent_robot_has_r0_plt0@0 false))) (let ((.def_311 (= fluent_robot_at_r0_p0@0 false))) (let ((.def_312 (= true true))) (let ((.def_313 (= fluent_position_free_p1@0 true))) (let ((.def_314 (= fluent_position_free_p0@0 true))) (let ((.def_315 (= 0.0 0.0))) (let ((.def_316 (= 1.0 1.0))) (let ((.def_317 (= fluent_battery_level_r0@0 4.0))) (let ((.def_318 (= fluent_pallet_at_plt0_p1@0 true))) (let ((.def_319 (= fluent_robot_free_r0@0 true))) (let ((.def_320 (= fluent_robot_at_r0_p1@0 true))) (let ((.def_321 (and .def_320 .def_319 .def_318 .def_317 .def_315 .def_316 .def_316 .def_315 .def_312 .def_314 .def_313 .def_312 .def_311 .def_310 .def_309 .def_308 .def_307 .def_306 .def_305 .def_305 .def_304 .def_303))) (let ((.def_322 (and .def_321 .def_302 .def_279 .def_260 .def_246 .def_237 .def_199 .def_198 true .def_169 .def_30 .def_29 .def_28 .def_25 .def_24 .def_23 .def_20 .def_19 .def_16 .def_15 .def_14 .def_13 .def_10 .def_9 .def_8 .def_7 .def_4 .def_3 .def_2 true))) .def_322))))))))))))))))))))))))))))))))))))))))))))))))))))))))))))))))))))))))))))))))))))))))))))))))))))))))))))))))))))))))))))))))))))))))))))))))))))))))))))))))))))))))))))))))))))))))))))))))))))))))))))))))))))))))))))))))))))))))))))))))))))))))))))))))))))))))))))))))))))))))))))))))))))))))))))))))))))))))))))))))))))
(check-sat)

--------------------------------------------------------------------------------
